proyfinal/src/viki/013/andrea/andrea-localstore/experimentInOfficeAgust.take6/worker_8/92e61ead-5e26-41af-8a24-b7c64fc2a0f0.als.cnf.out
Reading from standard input... Use '--help' for help.
============================[ Problem Statistics ]=============================
|                                                                             |
|  Number of variables:         87638                                         |
|  Number of clauses:          161767                                         |
|  Parse time:                   0.03 s                                       |
|                                                                             |
============================[ Search Statistics ]==============================
| Conflicts |          ORIGINAL         |          LEARNT          | Progress |
|           |    Vars  Clauses Literals |    Limit  Clauses Lit/Cl |          |
===============================================================================
|       100 |   62156   104548   260755 |    38334      100     29 | 29.076 % |
|       250 |   62156   104548   260755 |    42167      250     39 | 29.077 % |
|       475 |   62156   104548   260755 |    46384      475     42 | 29.076 % |
|       812 |   62156   104548   260755 |    51022      812     58 | 29.076 % |
|      1318 |   62156   104548   260755 |    56125     1318     79 | 29.076 % |
|      2077 |   62156   104548   260755 |    61737     2077     59 | 29.076 % |
|      3216 |   62156   104548   260755 |    67911     3216     77 | 29.076 % |
|      4924 |   62156   104548   260755 |    74702     4924     76 | 29.076 % |
|      7486 |   62130   104405   260443 |    82172     6686     76 | 29.106 % |
|     11330 |   53432    78608   197038 |    90390    10501     78 | 39.031 % |
|     17096 |   53234    77748   195042 |    99429    15166     71 | 39.257 % |
===============================================================================
restarts              : 66
conflicts             : 19650          (7971 /sec)
decisions             : 59688          (0.00 % random) (24212 /sec)
propagations          : 24921122       (10109054 /sec)
conflict literals     : 1390583        (49.62 % deleted)
Memory used           : 28.11 MB
CPU time              : 2.46523 s

UNSATISFIABLE
